3746829223
9217836989
19442752575
22409978495
30222102897
36585278221
38839691727
57848054751
65419897406
69436425306
87962807600
101891675380
227060278219
275532469039
330426392095
648581570578
851939265219
997304724333
1070451302730
1125572943320
1165971709235
1290495452627
1295026228597
1344387860930
1413970975396
1521666121160
1558353618398
1670343199991
1785173299597
1996804983479
2110995214359
2325334566209
2406991987486
2697170562267
2703482216843
2758486372698
2804371696741
2812831637776
2994922984866
3226863245610
3387805922162
3405832043669
3753170850516
3782850356237
3796200773516
3833921202163
3946880206496
4014680019036
4187562879969
4266159063456
4392596094701
4470372007942
4543977183722
4602613807920
4766913220815
4786893822740
5057839783271
5172156222537
5431114143309
5449448249969
5574307470434
5751789351664
5945677349526
5976767489504
6044626899714
6275217064716
6342909741685
6487984004963
6509053945554
6543755978505
6770995304400
7057928220725
7124906341232
7262894539309
7317415026517
7417597344496
7422282311860
7427814630923
7596542163509
7790937848982
7794415087628
7919531238003
7927974152023
8059451558642
8115907544668
8203364399863
8433938999394
8469648131009
8733862365927
8789455713474
9050151462838
9072563555183
9145818037124
9369215217654
9372591714480
9522360804278
9595753391200
9905917763962
9944641081170
9966711487348