2675918365315876849581159135118398184311111588342531127658134769455855461645673887145939255625944942199275741633198762114853726469143133916473933787836475188435585299433176565597882255493356236374322611
1911737471636475359771235636236219751111111118143217716111111111145565646885435425544481582864578211111126348118161845844217194271111111111117932373796511111111143144381472111569196566411811111111111666
2519111111111918126691111111126549611116722511241824141112111111111657571111111558537946439637114113397112461451111112896847871111197256522942135195111146674811194672111114144111111482497111189344116834
4411111111111113963331115692171951111889416588659627247911136935211197427121111118794911397677412154742198816791513516713515371173836181327429538729112597766281122811116738283451811132895117911421623949
7411155679172311127257111639295142881154752132642344743631118462221132151121844114347291471276396145464647168413228212941397111664813278811112681581527631879431141188534291645411117167266611664827938987
4111292324752491111675471114262162787111144943914831615864731143271122272111744772434666788236486115638267599228866413919276418655481111463337932313584183111811118115289664724324475816857319117231241869
3811157964411117711796731272834798417383668815195914326596294134351118333511191925245219184111317211514812685219553513225875511111111415311116479416461111116119381971111111241211174494827432672748956711
8821111111111111145627194956734635822446456692978111111111679832811688477611114434556156568132642584116631226164138711862661661111661111112111592213181319761115535655789884871128292132491311139867553579
8473111111672711228165518431111111186712631237111111111111115924482176345681211482411895411147117581113413637111138181171145327234849521161615823113944422776432567818766341111112542478574111761113238255
6272148157569466167772417111222222113815312911111135544377113959327891111111111111111255315197741871154992741122111669111358267361138311994534979186293113734585376869841118772991467724711523673281135948
9343436816574371117534347112111111111183468111136994291844115477721111112216257811597878941911125242523169111222144268153288877111114211916121185588811191132327331676111511771258116391111833554421175925
8317289999795111111119162812166787462131731116341882358218787571411111112218827712885111523251885536963411111232121239233478811122119613715126931691917625418325314411288555923931653211767739658681161917
8161962774434111221651176211111521438141655111791747111111539936111421412219222267111121823894627594111111621232144857883911112222119716331194127982818137338357611211966471256499465419251151335513119445
9913111113545711828832311122111192412144275911111111113836277387113249412112165851112221779622911111111824511222111111111111112332196111136771769348411261383354111634111196193818291618962111137455116652
6821111111145169691415394122251111469429427269121245833343176871151686111179237111222321736211111139116143112111111111111191412322113113398154418792924111942391126535519642436776324118715113297997183338
1781176784113576987887495154242794991157747577178861111111349951147542111232511122233321381111998785521211111121943956391251112221122711115912162845529281111111195549135565464426487516974611719991786154
5411162484811335634832261113624612571368639867676111111111111395172631118831112223333221111221111111151111113438711112424911222211475351728741611129816188963466696483424154111347563117976981112111861137
7211151798254159161781111211116263111111111143861111345321121777113111136811222322222211111111111122111221115581411299161112232114964292149281112184481593919788112592211113851111533351695344111149842954
8611924327232611181351121111116984112111112115431211468753111523879344349112222221111118562847131111111121111182287813111112332153168388557111222166111111111161361181111524498911158351182213491716128146
2411177455898611632563121159111598121181111216311111878414411765529682111122211111644595396484586483799111112111152895276212222111111111111122222198311511711117369311881781261111712199129128588913865997
7541123991118557323997111442119621121112751216546111121813169616968311122211117251447854427577551479819163311112111119911111111111112211111223221194711198173411651738724183346731517744226157994296932961
8561117111587911416875711173525349111177991112385861111769829781951112221111344762673111111111111111151698635411122111111111511788111118591232211663431461959251645416611129656227992296459264111111116488
4692111113614414544553662111277448612189448112919815615111652514511222111876188861111194175547611711111111319772112222185244982533421831711232114821941313316531713574186362111195918915264731123679211759
3696761157178311111116333921111172711115644831728452747539485221112221122152175118251124372175362815662711119932211122118575541111137971112222194438949412529351588881691111111752591232344413213818181712
1861761663587111111111174559275695577511186548811111111158714711222211981449741599992664566111117128676797114988447112211173218628416911122211192456368926226751585681111457179689558214855817354876111485
4632938161431111468311155782954318636759248683111111111111836912222111615124315471594251111111915446911111176554316711221119536434111112221114433625476664769716187651134634531469529447724912783454455875
3984758182611115822595145143111111111839682911121374131211477112221156765223848545596111221135222311197375231923926621122211129778111222111733465941117998117622619271115711112252811111122286486882338225
7987151297352111398686242981111181111111185137121119471115161122211938251853919582641122221285534164165925891111112426112221646856671111173445916511471195723679418183511111565279188277114943656546745212
4689914592393911113812255419114763249111162768121111751166861223214594111519516674311223321117941174321179381143411886911221115122528119796258525581814411654276179144448459124391689972311849877246826712
1991122561873583611112872882111148537861112771112183211188311233213439111151416471412233322114395762911449811476933335881222211145438611119755359511692171129139787411111479224117644167115954354111111152
8658196477226327992485375413511119421851861746211114511154212233219862272923415997812233332211111111111388311219873187181123222111111111117929376182137134193436461167851112415111685711184514851976421153
6571192151115955595488119259417411111175982795141132511444112333218331954754239294911223333222222222221741311731172396924123332222222222211111921133817562118263116352786111165446918997394295212357391113
1991131441216231771111116114664246875526822576159337911555212333213311119163716353571122223333333222111111111629861138523123322222222211111527619143165941919495115899413411153577384642626887424573811788
1381189251215121411111753237682822198441117435528849771867912222211111111111441312972111122222222211171112216111525111455123321111111112191241319763681716117981243111172111215343897993648121865636268644
6951185261118799111161125314914631111111211111125374931336912211113232288711113795975198111221111114937212211276342111317123321618922934843583168153119389113188175769111181761338181111111679424839386559
6321155711192231114997584134981111222222222222111114627382912115381263383531111141171287161111478516491112221914159611632123321154155219811111111131211147141136551649195549123111111344611118753699156165
6288117111724978111665111825611222222111111122222111586257711166611178312382581111489191983251149111162612221111529411261123322116126937351786179115244111186469772387157535844114775191472113585451932156
6513611113272838311111116614112222111166695111122221114511111791111395212362573111112959374768147199685311111933747911764123332111759596748152122417364183224717111111112329741142158524791114275111116466
2345649173217314729723212641122221146464484497111122211112211111178619118776319984111119353273373757111111311855361119156123432221126954984288345311169336119111111715911173171842335121111667181127111684
3886844774115514329639949381223211114911111186736111122222219479588322111211173218551111111111111111111117111331711133481123433322115584461239981184586833933173628499981139851579121111839574351249591142
6536925981137511645678722911233219183126427954475982111122211853965712119694482156468571221111111111131775119164111797541123332222211552299611119377718886614197564268111153911429699574476638911812811127
5815414941579311525452482811223219126569935787971287787111111111313811918442718322933111211142148315388231116981119226411222222111111118341517548482911199117113818611191938282163325111111395455548211826
5845538611153511675415653591122211216651111111162732498913694229645418345567856511111121115348916715973711113451198996912232111153678387117532851111112111187111467341326249952718611112411117667723539335
1313157911711111217144138316112221171661122222111149393886877761115389689843111111221111781814734197546951189111843411112332157755887311111111192661122221117866128791676486446569911346136112173153556421
1486863411112119331154561249911222116785111122222111164412637978486579111111122222111475629529887454359971166316356145122332152654919111125461147587123322211114711172281111111139918514221156687389513546
6229712754111194911112611931591112211142482111122222111111111111111111122222222332188693239381111121215591433696394511123332114814751112126611223411123333222111565462111111111116511495733955221811157982
2711911259186685531452111117232711111111127215111112222222222222222221111111112232111111111111118519888611643644388112223432111338545144912116462811223333332211841731135886989111431119992933421113111971
4516671135577575181392411251836758331111111231836811111111222111111111932758311222222222221111649438111129245114349122333332221741337899281169219112222222333221166411561476411118364691111541111174761132
2462171137159824111118111113181797631759247594539126423691111142916278339393241123333222111731352511116511161323411122222222221717178857112865461122221112343322119511757846111135756224611693812787861496
8287997117697154491111111141111111664852583298463547888697465511111111892792579123322211131327341112339311561429112211111111111163918411133891811222211312333332217111392371112651687111116499167231611189
4817874115284111749211163381111111125563911111118139434153161335339111283431331122221118855612111648711168445911122119486337757175965158588987112222116612222223213111437311769811111111111498981191577454
9312328111348621178574932311751441114825111111111962796856125243459113361661111222111536885111854721113379248112211164773486242119284427565511122211138212111123211774511753412111111165331779849871293521
7211746111947223116915166119483811163485211524411589143811114351411115941111222111158319471113648111582191271122113779575511111184623269821112222115454911129123221898698635971111129153323715163898461674
6111151116491112114265356128929812166585341993161168281113979511111642111222211192351661759526311732917274111211182931774992111272351821111222211143213111436123321324477362951118456589783138678111132662
8175711116415116117553411781843311175573294183812721111631869811716811122221113582551155963979117461146361122118665311911118731498651111222221119653251116885123321157613411151111196228124832611171111467
1516943516625711112982981524174111812111111266928112112785481147471112222111574679469111115111148114517111221122261286888945374111111222221111779116271114987123321236153112127461111111148861114481941174
7129185416242591247456492828861145716111111789929711193311111329111222211162136749515312213131111772711122221926129943118111111122222221111782751661311164211123321361911122115189132684759666111713471116
5941829915541162238751313831932275591182311116241481167111922411122221117194468323653112118184587746112222221111111111111122222222211111941297119821111111691223321311112222218583151971326132183399611145
3319223523233432724525573358121614851125512159431632111442777611222211332828151929848121153574573911111111222222222222222222211111119752829771139351111689761233321111222333211321911111111673914231391173
4512611935141488714298448817515973371923412119717757982457781112221117972812437648111111156849111111466711222222222211111111118843191266711114193111117759311234322222222223221868111428371917435975111984
4475541191175168516867121111111895316513911185866514746226511222211738291117888377121114757811115874692111221111111117281642966681838491581264561111652179112234333222111123321199114342361152836154246716
7673351118176122111686145218211191764844511123749921854631112222112469115487111881111378191111164991111111111674578914429979111111111432877959111114892911122333322211145123322112118914367125561112411464
9882921149156119911138499587361197782775411587142711141251122221152971131633129211171653911128642111111117983795858586771111111111111113827111116883891112223322221112391123332167118315575595533237374922
5819611127115414741127267312211916529645481321117597153811222211693911236211285118128751111526471121117219581511265111449479198371812218131115344911111222333221111188634123432173511111761351729611117916
7661711852114114699111222211112515961163934411938886134912232119983112183117351156911711114766111111332793381659815111555683881364112111119438343251111112332211137618229123432151643551719268544517811311
9697114126911114799512111111911345189712718611925671191112322158691133911111111917571211164161121157785452311951111198567815822159111138311936871111116312322119914121128123432136248552935287653181581485
4391775947911126264274755975917621943211976811315371749122321133311396111734799241181111287311211458491185514723112195184628794311119976293455331118388112221143118891114123432111187291111123494158461759
9941764921136475414254311177577911111841124511873318564123321123715472112191491279517111415112218795711971111961132586946631111111362526739396111154571122211448112511148123332113231113454641178546414953
1763147344271764812317111255432111226151831971111192681123321615275485119687689611671112672122119869119881165311658713311111111184651246748411111726611222119817811431126123322151811671611541149243179694
2561943917617276761573787211157911561111515361547258951223321992247664116281896117941218891122125751115361387711699123963816151124357296211111618735112221197235811121951123321184116527669711768874252756
4111123118714156721155368761528631111136554421255925751233321234721738111635321144451215231222154771688941459816351811984924181114111111111182854811122211631535212111781223221368117143181115762127869297
3231791192263472597111117911257179347561357317595162351234321779111119311194111175681214371122187171132521847317261661693664711111111111874733288112222115846313111111551233211412615932925914856111111576
7161111186711617171511111119125915233155184161163989681234321797821116425111111497421111411122114878118661182912148318885641111861722125811144361122221146175111185216411232215794111234779136111916411537
8147277862617211144281817783163636979652531111211453451233321636688116119726341517865113598112211899311881119416331111111111175725451111189634111222111991436411118793812232111872111115737611961358114688
7845751378111888195858624877711151122496411154711142481223321713411119231462797114971111721211211999411111191816121111111515877174114918986611122221161211346411154172112322154648873411386119153291771383
5352899341191611122757133465877871198411947113221148431123321271111178711111111111581711171891121111317911536815313967445756652996942557451112222111544313399711112641122221196421112288651137617218744893
4499616811168111449372114331115351113218172811111136729123321196111867911814411932174811117984112112498894442116281865111111383136847432111222211134947835311111185711222211158111111159911999493498318656
5411381513111111724888317218136811185588892949447465717123322139111376419915362799183171111323411111116661431654427111115551143869836111122221118184265697115956747112222119511112498116511549413611985179
3318118996715883351559211318811111551581429529921264114122332111511148371896781541111452121111366122211111827196934248542273133951111122222111287131134789918866151122221177251189276311741111111154459678
4114746625713788514697918168875924763167111152111119685112222211851139393555116223111516862311111123222211111595648979847181111111222222111135917251811415479313111222211263966134174491724631169123111224
5181779836776732182483119871715274131172112238617141115611122221587157815589211115911192586859111122222222221111111111111111222222222111146735768736611575865511122221117637595114765781144112299811831877
4111528811893281169411117223535456111312292384765866117218112221198678227263111141441111918111563111111122222222222222222222222111111121112986111198911187861111222111781888912114413261183411534211161122
4429553179163557111111299278289113491113594641441111193422611222111195116527281111947191111571556539844111111111112221112111111155457564263211111393611762711122222175997266111114291111111687738137281122
5896131945718676411458118199129191413111111111111142533391281122221151111127469111113472111664111113425282934585111111811112628188848627411111112853111571112222211196656111111191646311264634995611571188
6268151532263111156457211897845514667366752178856362177426575112222111122111867891111111118173936891111111111338165811261611111173644711112111916812927111222221116262111584118957818831529531441818461989
7475341139736111114876671152951169211657111158954297177216673711122222222221111279332111145659287479689411221283211111111111897724211112211121776962111122222111552211388181136634785162881921169984211519
9791999115916716417928197111116754897872911819456111115511646737111222333322221111922361846145411111111111111192189211111728428111112211111544451111122222211171934172962764923691373291794873185191166817
9185176411111658123792715271377225311111111153481773171111475154131112222333322221111138378798374591111111299134821977789181111112222212918911111222222221119383911291564372213564111111133645111111375424
3471111246669851361111111817798247158415811961359455249626561915115411112234333322222111111173486874639854664655415311111111222222333211111112222232211111358975211111185165481111117443664256325362436767
9235411355331368711165721118519234814447747111275387776432348551793997911234444333332222222111111111111111111111111112222222233333343222222222333332118521595995558337325256311111241718392777459811111483
1751821355166234881158571264112815886593661736651981121481514315861867251233333333333333332222222222222222222222222222333333333333333333333333333332172888289346532239227416511114654791116183756113681172
2869431165129491641111166271211496411111111111111111111111111111111111111222222222222222222222222222222222222222222222222222222222222222222222222222111111111111111111111117529111111113276618756116241186
8237321126197344152955111114856326446499411111111111111111111111111111111111111111111111111111111111111111111111111111111111111111111111111111111111111111111111111117111759862563818266971523111129128782
3571261495152741818947491485373412126882478915457348489252589377916941972411345162589149591286335276562778261162893334211527633158227846185523111194343331173472113115847159249533591111111114391178481439
3934115313211653144813334392844841874711191628241111111124479511112212717853531111754531261111111125922532458926551321521111163346973361111576348855172111111118237479111111112113711427142411822141163998
6759478769411111131395821119248992292767117455112499111118711153111114274611111111111852581119832111351167557115654566111111111132356111111111194625411111178411218461177171113193114859664831784112625694
7148449168566241122475283271119248641146341181927965931184111123331181289131597931121344911684917216895719473445119691123659865114261169514328119463111136837534498122648969113869117982746111944295914934
3613713663838337221233519775113341112535911161929231111668171791111273621722752111111952615787579129943791599518116761114638766269241345199726198241112276995211838372439493919798211116211958189133555594
7426128418998863781179985111142491114244117354798384186843691111718415398138111111113931544884621265449855114611311511117624387622771476911429181122115451211851146543799175318156291152119327365763856355
3321193281816146592531139853553711381161196581987615134961787141176567724438615771588989536684158411111169871127128661171317884169447612211841553989995111149759242174221493347573944768587718722111112451
3361236145591479492523511233553628855361986583856735231158871218898965648672745534185346349534124112828711311517542827111145591139549161411111145266878318178333111576728525116474698111739164861143111657
4591891653997112941392141715472111111123454799195511111111122961151111111934245181438171111111444173777861232936127312398898818119816311913758811114929115724656996113493112835375164911588815934641411475
1981936999599191218859111697437626875248111153494666258283211479117257331114818916585437798911134219568275198317659651221234561178438151457733395111495114768879317811113137398135792781486841464738611396
2211132481951218331132115336425446363271231132754773713177118174181178891111441712113965251118286174573398649511621981848491331119253124767436111119759411149119788331111171623211365611597527137884113256
9159111111113824438111113626946311111111198724573341111111412495463711111124316866238111111713474944361786224669111111111981212661111162972473438774652127111166681879614833512652911995748823711111136655