65663183816451121464117125836772616878277464338621154482873364812286641663361222885553176557327443425
65115274648757514275473455384612627786712737585575421761616256648314156262467562343836767367353141243
63541883234455645216244655177371318236584826134232445477482367461145767226427277887324221753586353225
26415155838872234422535164131734561141126478168845634735865634641727787756155467546534828444646421461
52847777341518274287647788547564537274757186733638237381288111668237245283574334561482262867573685654
13513334265775385313326812512611751882627643171322511311375271152121231775512246138246153388361243668
48764813168125255278536586726414136411442621571785131366785311364662182583887332316587442683771383811
68175354661441441784634661367777557612881411561322227461634315586311224585627631585158765874558344717
27818177846885252852418755365427623238516681412237877335172588422672881714557843412532176817852585146
37267478445213218756257122784874148727568528151884328535783388771517561613462645635655347635175843543
13223222347475164131618622851368677373224131274182446851871743817281711561585645365183667281838288442
65568576125177847756166347857124468731175655468988869489569432727626387266252877277868151764766817837
51826362155228364836726585563848514286346884588446499797596698827487212552311224277868711215576483162
74627762651438324512437518288712477796755576757496854764697779776587276687234144617634374346568867868
27746687883174624216118618534538579578476454896949956567665559565955165652223581648324345173586672711
44627347775858338828315756727861698497748788995898696744479444684459773747848218232174378267574137547
76366251123878856783563511513475557766954946987894769788867594696644597617352571814437158627847288717
87858175346383267134685626849478459957754498876696546696944887496497458496657257866882623114732643757
66356145175212544442325656779959477997787845549697795549457694998796544494771562257555528413211212127
82477665522256878848351387949596894899699866777667768888976778755744757575756871311353242751721626884
26453844852812362376778389996565647656589846589954886484846899974578455984946526734587166542446344568
66613815751178272574212868889968647557568574857967854858449896646779676858479795511634858824131315413
14825865484462384857229875556485865776556668577699587794886858896999976495566769356111517787617282758
36143516274822714348746654555896476899988596877657659449598587554645458494866485823826783114841583512
17167487323356738278677987598675766798766748457888485458599496699588879697956748685646311635233434582
87684783211486442817895955546957577796869499676787845797549546449694758468657479681584777164728455737
44551228223346761427545499744898946975595764457946964946668899978975576746896988947387785864433451231
88118418423616667146594588444686957949678845686948676895799548586749595478784495864954712181812433177
83575348884747232467649654564889586974757796559997796675787498845967769664558499786488328475825425114
76784267366451141995654944447969756464564946687987978665874595899489698568889665445865377634623385448
18763575271576188845585486945484589776555469768879765774679884468877967599875498876567386622385322343
78285146772746577698869696676499584955848988594869679549784649675644756645696484687758142648752865623
31127485238878388968788977657459485468867956646759644884797477494554475579866974685895737632287543645
75636126835236885449448795997757465444995757758454964694687779776766795649659498684886414514277745742
11442226651645769576989577746567598966899959947874954958559676974576958479974955965589766661468174517
75441166843751474759884988955598596699786784699455649995697497486994647579969574579564564855714836888
38351663136228986468675778567685769596545574945995688889777587895479946945776885974467574767742475153
55522167537714468759996445566645498869689988844546847889985787896945657457756969685895964167184566386
76137558247715867574488998845796877556695786554965884555579676978564844557749478774988476647517574286
88214425644277848546864849978996854494749987854499798857677598474879555777877588866588449548766573654
55138817632187474459799886968898467956864857886944978678875646748649954765876584649597978786346273861
53553147552288776488587588879469879564588666497998966644845497564457554877488898995544564663775526132
87615683544387547775775446574754584456946869877744597874975499888858787967495984698849466821733714826
73128653557899755958994777489877458687675686766748844864466657476979784687774744769489569687331655887
47442567552698799984675998699986677948964949996798777998985849655499675787584548975965789843653723373
72725115228479877676446799984894887848789797999977448844596589668876895999544659999866789794334543342
88652176854968968454999768994744594649545998976678447768977685579477995578975954995565486881688377215
34861328266866969479754794657959767468548798445988465586745597677644864777475767966686647772357146366
57573254685465446589858969689885784764875479566469765877444774549844994447844774475977854584365544244
65164774363597459448485479489787548958848869975945459965656468469999467978985765544556559785375316554
63134832823859654584454975854467657545978994644967@99768484844668746695948796548995786864755627587237
34642413155564445787958976757484488897748464855449497967799964887946988486654756544658868594727472265
62713664762787669649445745598775959669767465795965745954786997688577649799576675844567769783524148341
24715547468798896794967667645766674497547887854966869455994799588889969686584945868566487496356282477
51585673233964754546867954545956676658789794745854964754878477765958995977884959644977845447576782887
77228373817648778554944748997758554644577864684646999858446979858746879758896874975585448995622381186
61361818275877469859899757445768564856698547857599664748479975479944559645585665957587954674265741465
28417215268647898594584697785778468485547889459647548645844577688565845846684759859686547554511668488
88645131628898965444559794877574445656477887889957679764747594746965598767845594556566944945228771462
73456776628699956844995654669449946677488957996887984959879598864484499746956967948948857883567721145
13637531818866646974584546954569854459798695697957746688859995749888954865957696849676465673171778328
77814186663758489858896985768967966579674979659995694946974596888968887697568599874799597821853866832
42773173338447568874586689454457775947475787769544648476648746775779686789984487768697646427518425365
28355836732758967765977858788696744849754755977854696966784696897886797675676459569487467433448818464
25268552664814676569644476685474887988485589686668845489465577484685747776558956589579745457161546388
63324733266416755696556466454477856649954697475899756658797697476887589955597647968575776185877156866
34366124182887956698749465797489897574789977856668755555789768758454746659459978748889875366831325148
12752162358438677749887665867456646885949795575954764678897798578898675869957975889859952335651787781
37528431663635847547879556464778464746877989874768485694576977585999964466784548589557828828224521425
34761578727357864698754948649854797798468967586864647556899656986859987969597694866645613843131672376
12522723273655756986764575795974698859946744889749974448884789995794474655874676767677811352351667816
26464611756257519697597844749564488774974587756774947475478897566569584778757959457599178422735475174
21658435648241511587584449869576554476687875795798756875556584968796876566544989448962213573534461367
24374584824816848557954874765448596444585588478586699785566498768555656555896459955486326878466255682
67411611261378444667749649999874884977677696757869599469656859874498888598688877468951161648116155523
17551512248267372418444487654967455449954587679879989475774894556897457769466466849884644737557353464
75483335642351862516767979448498757678698995474848576897857767575595458559975554895322653472747311788
86765835525273314263166698875684989944878649447675599977589549648484766869959445855615514326118831481
24576742135457711822195467968997767996897449486589477485469555975584656468656788874744281165346728535
74514524665231213865464977599849499459968476485488575746944659958767975675445789861232262365474747312
35487648716771482553765548546748864766788998878869489447459479899495888887664752686582162543728823484
17353277321286328638835557446497499495576948769746846694698695579665799855975643771176622557217836673
17235143371125654285267681565449974546488449558649777984847876677467686548987437361113443574641615172
31878222166352776447531111747898668769484567787567948957657896467697957786742312871283427217676353787
37124734345368252243614541544965875757764975456759894975654976574854875464764381883754818814628222411
55124875768418676748111286173698645898949895794647477888768666979945979847113816237541587766575855573
26477363766776588685531146536832487744699487589447485844999997859985776564783535871777855676616611453
53622524321516464147645415688531147584665896475875686599979678756494427288711223682286688415255436381
61147361777277232672665557252776527269858959998586745957664857889527722264548742268454546778764471856
14463345845682686187322161514284528738297657885756896667944476457836112726324727158675463317527273422
21217425845444377224672457836566754634257336444599676747655275527266587281561816314111413661832182631
63273615474132375777372518277812732114315743278873472374433215764283252243621561727524665685717443744
52356634831452532531236874724763358645415521444674676217765782574811725117613314874486157246868471166
88367636164242813581182823515835415545151838557561724747535731338282411132713552568686348655237222721
36528864813231862534471415311683524652631142144187464221672362226844834151336111631666615684373534713
75682346252834254676644464314467856854153536745322683414428726241352752325186223733885835538723112547
35645333251314367334475818721868457417728847227863444641678678338772823216711144278311263878777624518
33235412852833153256667182813778413157127178841773371762124683772844243232637855887417682448811663866
21334767341185352773145831838411484278168116616672842588515657243383542168523223156782516886867563352
14633252763632747171563431567574334272336365176424355151647332325176744344557376817667363625577452666
32612466724447451573464685272871145126451882888216827621537786481476561626521775218448258214345875126